0 0 2 0
0 1 0 1
2 0 2 1
2 1 3 6
1 0 1 0
1 1 2 8
3 0 1 8
4 0 2 13
5 0 1 13
5 1 3 16
3 1 0 13
2 2 5 10
0 2 1 16
2 3 0 18
4 1 1 22
5 2 5 19
1 2 4 13
0 3 3 22
5 3 0 28
1 3 5 28
4 2 4 25
2 4 1 27
3 2 2 22
0 4 5 38
3 3 3 29
1 4 0 38
1 5 3 48
2 5 4 30
4 3 5 41
4 4 0 48
3 4 4 37
3 5 5 45
4 5 3 52
5 4 4 45
5 5 2 49
0 5 4 49
